NAME: bip_30_6
TYPE: TSP
COMMENT: bip_30_6
DIMENSION: 30
EDGE_WEIGHT_TYPE: EUC_2D
NODE_COORD_SECTION
1 19 45
2 79 37
3 27 61
4 19 65
5 50 10
6 81 26
7 36 3
8 68 37
9 52 98
10 44 42
11 83 64
12 71 19
13 40 6
14 1 92
15 4 49
16 418 464
17 428 457
18 443 456
19 461 491
20 479 445
21 437 415
22 433 452
23 430 438
24 443 439
25 449 484
26 482 469
27 414 406
28 457 413
29 464 476
30 490 422
